%Nproc=5
#P B3LYP/6-31G(d) Freq opt=tight

combination_01

0 1
P -2.714301 0.000003 0.056765
O -1.926896 -1.284476 0.128633
O -1.925428 1.283516 0.129485
N -4.181288 0.000879 -0.079861
Li -0.424000 -0.001000 0.267000
Li -3.789000 -2.031000 -0.046000



