Li2 Mn2 O4
1.0
0.000000 0.000000 -2.810600
0.000000 -5.755000 0.000000
-18.318000 0.000000 0.000000
Li Mn O
2 2 4
direct
0.750000 0.889000 0.937500 Li
0.250000 0.111000 0.812500 Li
0.750000 0.368000 0.937500 Mn
0.250000 0.632000 0.812500 Mn
0.750000 0.859400 0.812500 O
0.250000 0.140600 0.937500 O
0.750000 0.400700 0.812500 O
0.250000 0.599300 0.937500 O
