New structure
1.0
        4.5795000000         0.0000000000         0.0000000000
        0.0000000000         5.7550000000         0.0000000000
        0.0000000000         0.0000000000         5.6212000000
   Li   Mn    O
    4    4    8
Direct
     0.250000000         0.111000000         0.125000000
     0.750000000         0.889000000         0.875000000
     0.750000000         0.889000000         0.375000000
     0.250000000         0.111000000         0.625000000
     0.250000000         0.632000000         0.125000000
     0.750000000         0.367999999         0.875000000
     0.750000000         0.367999999         0.375000000
     0.250000000         0.632000000         0.625000000
     0.750000000         0.140599999         0.125000000
     0.250000000         0.859400000         0.875000000
     0.250000000         0.859400000         0.375000000
     0.750000000         0.140599999         0.625000000
     0.750000000         0.599300000         0.125000000
     0.250000000         0.400699999         0.875000000
     0.250000000         0.400699999         0.375000000
     0.750000000         0.599300000         0.625000000
    
